num_offers = 40;
num_halls = 10;
start=[66,17,53,5,24,84,3,62,45,54,26,71,21,12,7,13,9,4,32,62,65,11,24,7,26,93,28,60,51,5,64,3,4,54,30,18,9,28,34,6];
end=[84,82,72,75,47,96,13,71,64,60,79,83,98,92,31,29,73,73,36,94,78,20,59,71,97,99,35,82,100,94,95,42,87,81,47,34,23,88,56,22];
price=[1425,4368,215,3228,1273,963,1060,965,1972,526,3507,1169,962,4415,530,469,4001,1618,116,2200,391,823,658,5136,1282,128,673,540,3998,5024,2248,3392,1578,977,707,1086,1366,935,1101,987];
requirement=[517,215,972,294,578,220,968,256,884,682,277,321,870,647,209,348,664,330,888,409,736,498,691,512,893,638,211,318,611,416,208,267,784,716,701,779,793,720,542,775];
capacity=[851,953,602,702,352,433,494,963,778,591];
